Route 1: 0 85 48 77 17 41 75 90 0
Route 2: 0 73 59 58 60 97 4 49 74 0
Route 3: 0 6 38 14 2 50 89 54 31 88 0
Route 4: 0 21 91 32 69 66 84 0
Route 5: 0 20 9 98 63 25 56 87 19 7 0
Route 6: 0 86 100 13 29 44 16 99 1 0
Route 7: 0 46 5 42 57 93 43 33 11 40 53 34 10 0
Route 8: 0 3 15 52 79 12 18 82 81 95 28 78 0
Route 9: 0 55 67 71 96 83 64 92 36 94 45 0
Route 10: 0 26 39 51 61 72 62 8 35 80 24 76 0
Route 11: 0 22 65 47 68 30 27 23 37 70 0
